32      1       
15      
0       0       3       2       3       4       
1       0       1       6       
2       3       2       11      16      
9       0       3       5       7       8       
7       0       1       22      
1       0       3       12      19      23      
10      0       3       9       10      29      
8       6       1       29      
10      0       2       13      20      
2       8       2       17      21      
7       6       1       21      
10      0       3       18      22      25      
2       9       2       14      15      
10      3       1       21      
10      0       2       17      30      
3       0       1       24      
8       1       2       19      27      
5       0       1       27      
4       0       1       31      
7       2       1       28      
7       0       1       31      
10      2       1       28      
7       7       1       25      
9       5       1       26      
7       4       2       26      27      
7       10      1       29      
5       0       1       31      
6       6       1       30      
4       4       1       32      
3       0       1       32      
4       0       1       32      
0       0       0       